(set-info :source |
 Generated by Alive 0.1
 More info in N. P. Lopes, D. Menendez, S. Nagarakatte, J. Regehr.
 Provably Correct Peephole Optimizations with Alive. In PLDI'15.
|)

(set-info :status unknown)
(declare-fun %X () (_ BitVec 11))
(declare-fun %Y () (_ BitVec 11))
(assert
 (let ((?x45569 (bvsub (_ bv0 11) %X)))
 (let (($x131566 (= (bvmul (bvsdiv %X %Y) %Y) %X)))
 (let (($x139243 (and (distinct %X (_ bv1024 11)) true)))
 (let (($x131335 (or $x139243 (and (distinct %Y (_ bv2047 11)) true))))
 (let (($x118543 (and (distinct %Y (_ bv0 11)) true)))
 (and $x118543 $x131335 $x131566 (and (distinct (bvmul (bvsdiv %X %Y) (bvsub (_ bv0 11) %Y)) ?x45569) true))))))))
(check-sat)
